c Result of efficient AIG-to-CNF conversion using package CNF
p cnf 11 16
2 -8 10 -3 0
2 -8 -3 4 0
-2 8 0
-2 3 0
-2 -10 -4 0
3 -5 -6 0
3 -6 7 0
3 -5 7 0
-3 6 -7 0
-3 5 6 0
-3 5 -7 0
4 -5 -6 0
-4 5 0
-4 6 0
-11 0
2 0

